language ESSENCE' 1.0

letting n be 22
letting sizeS be 231
letting SGS_FunctionND be
        [[0, 1, 2, 3, 4, 5, 6, 7, 8, 9, 10, 11, 12, 13, 14, 15, 16, 17, 18, 19, 20, 21; int(0..21)],
         [0, 1, 2, 3, 4, 5, 6, 7, 8, 9, 10, 11, 12, 13, 14, 15, 16, 17, 18, 19, 21, 20; int(0..21)],
         [0, 1, 2, 3, 4, 5, 6, 7, 8, 9, 10, 11, 12, 13, 14, 15, 16, 17, 18, 20, 19, 20; int(0..21)],
         [0, 1, 2, 3, 4, 5, 6, 7, 8, 9, 10, 11, 12, 13, 14, 15, 16, 17, 18, 21, 19, 19; int(0..21)],
         [0, 1, 2, 3, 4, 5, 6, 7, 8, 9, 10, 11, 12, 13, 14, 15, 16, 17, 19, 18, 19, 19; int(0..21)],
         [0, 1, 2, 3, 4, 5, 6, 7, 8, 9, 10, 11, 12, 13, 14, 15, 16, 17, 20, 18, 18, 19; int(0..21)],
         [0, 1, 2, 3, 4, 5, 6, 7, 8, 9, 10, 11, 12, 13, 14, 15, 16, 17, 21, 18, 18, 18; int(0..21)],
         [0, 1, 2, 3, 4, 5, 6, 7, 8, 9, 10, 11, 12, 13, 14, 15, 16, 18, 17, 18, 18, 18; int(0..21)],
         [0, 1, 2, 3, 4, 5, 6, 7, 8, 9, 10, 11, 12, 13, 14, 15, 16, 19, 17, 17, 18, 18; int(0..21)],
         [0, 1, 2, 3, 4, 5, 6, 7, 8, 9, 10, 11, 12, 13, 14, 15, 16, 20, 17, 17, 17, 18; int(0..21)],
         [0, 1, 2, 3, 4, 5, 6, 7, 8, 9, 10, 11, 12, 13, 14, 15, 16, 21, 17, 17, 17, 17; int(0..21)],
         [0, 1, 2, 3, 4, 5, 6, 7, 8, 9, 10, 11, 12, 13, 14, 15, 17, 16, 17, 17, 17, 17; int(0..21)],
         [0, 1, 2, 3, 4, 5, 6, 7, 8, 9, 10, 11, 12, 13, 14, 15, 18, 16, 16, 17, 17, 17; int(0..21)],
         [0, 1, 2, 3, 4, 5, 6, 7, 8, 9, 10, 11, 12, 13, 14, 15, 19, 16, 16, 16, 17, 17; int(0..21)],
         [0, 1, 2, 3, 4, 5, 6, 7, 8, 9, 10, 11, 12, 13, 14, 15, 20, 16, 16, 16, 16, 17; int(0..21)],
         [0, 1, 2, 3, 4, 5, 6, 7, 8, 9, 10, 11, 12, 13, 14, 15, 21, 16, 16, 16, 16, 16; int(0..21)],
         [0, 1, 2, 3, 4, 5, 6, 7, 8, 9, 10, 11, 12, 13, 14, 16, 15, 16, 16, 16, 16, 16; int(0..21)],
         [0, 1, 2, 3, 4, 5, 6, 7, 8, 9, 10, 11, 12, 13, 14, 17, 15, 15, 16, 16, 16, 16; int(0..21)],
         [0, 1, 2, 3, 4, 5, 6, 7, 8, 9, 10, 11, 12, 13, 14, 18, 15, 15, 15, 16, 16, 16; int(0..21)],
         [0, 1, 2, 3, 4, 5, 6, 7, 8, 9, 10, 11, 12, 13, 14, 19, 15, 15, 15, 15, 16, 16; int(0..21)],
         [0, 1, 2, 3, 4, 5, 6, 7, 8, 9, 10, 11, 12, 13, 14, 20, 15, 15, 15, 15, 15, 16; int(0..21)],
         [0, 1, 2, 3, 4, 5, 6, 7, 8, 9, 10, 11, 12, 13, 14, 21, 15, 15, 15, 15, 15, 15; int(0..21)],
         [0, 1, 2, 3, 4, 5, 6, 7, 8, 9, 10, 11, 12, 13, 15, 14, 15, 15, 15, 15, 15, 15; int(0..21)],
         [0, 1, 2, 3, 4, 5, 6, 7, 8, 9, 10, 11, 12, 13, 16, 14, 14, 15, 15, 15, 15, 15; int(0..21)],
         [0, 1, 2, 3, 4, 5, 6, 7, 8, 9, 10, 11, 12, 13, 17, 14, 14, 14, 15, 15, 15, 15; int(0..21)],
         [0, 1, 2, 3, 4, 5, 6, 7, 8, 9, 10, 11, 12, 13, 18, 14, 14, 14, 14, 15, 15, 15; int(0..21)],
         [0, 1, 2, 3, 4, 5, 6, 7, 8, 9, 10, 11, 12, 13, 19, 14, 14, 14, 14, 14, 15, 15; int(0..21)],
         [0, 1, 2, 3, 4, 5, 6, 7, 8, 9, 10, 11, 12, 13, 20, 14, 14, 14, 14, 14, 14, 15; int(0..21)],
         [0, 1, 2, 3, 4, 5, 6, 7, 8, 9, 10, 11, 12, 13, 21, 14, 14, 14, 14, 14, 14, 14; int(0..21)],
         [0, 1, 2, 3, 4, 5, 6, 7, 8, 9, 10, 11, 12, 14, 13, 14, 14, 14, 14, 14, 14, 14; int(0..21)],
         [0, 1, 2, 3, 4, 5, 6, 7, 8, 9, 10, 11, 12, 15, 13, 13, 14, 14, 14, 14, 14, 14; int(0..21)],
         [0, 1, 2, 3, 4, 5, 6, 7, 8, 9, 10, 11, 12, 16, 13, 13, 13, 14, 14, 14, 14, 14; int(0..21)],
         [0, 1, 2, 3, 4, 5, 6, 7, 8, 9, 10, 11, 12, 17, 13, 13, 13, 13, 14, 14, 14, 14; int(0..21)],
         [0, 1, 2, 3, 4, 5, 6, 7, 8, 9, 10, 11, 12, 18, 13, 13, 13, 13, 13, 14, 14, 14; int(0..21)],
         [0, 1, 2, 3, 4, 5, 6, 7, 8, 9, 10, 11, 12, 19, 13, 13, 13, 13, 13, 13, 14, 14; int(0..21)],
         [0, 1, 2, 3, 4, 5, 6, 7, 8, 9, 10, 11, 12, 20, 13, 13, 13, 13, 13, 13, 13, 14; int(0..21)],
         [0, 1, 2, 3, 4, 5, 6, 7, 8, 9, 10, 11, 12, 21, 13, 13, 13, 13, 13, 13, 13, 13; int(0..21)],
         [0, 1, 2, 3, 4, 5, 6, 7, 8, 9, 10, 11, 13, 12, 13, 13, 13, 13, 13, 13, 13, 13; int(0..21)],
         [0, 1, 2, 3, 4, 5, 6, 7, 8, 9, 10, 11, 14, 12, 12, 13, 13, 13, 13, 13, 13, 13; int(0..21)],
         [0, 1, 2, 3, 4, 5, 6, 7, 8, 9, 10, 11, 15, 12, 12, 12, 13, 13, 13, 13, 13, 13; int(0..21)],
         [0, 1, 2, 3, 4, 5, 6, 7, 8, 9, 10, 11, 16, 12, 12, 12, 12, 13, 13, 13, 13, 13; int(0..21)],
         [0, 1, 2, 3, 4, 5, 6, 7, 8, 9, 10, 11, 17, 12, 12, 12, 12, 12, 13, 13, 13, 13; int(0..21)],
         [0, 1, 2, 3, 4, 5, 6, 7, 8, 9, 10, 11, 18, 12, 12, 12, 12, 12, 12, 13, 13, 13; int(0..21)],
         [0, 1, 2, 3, 4, 5, 6, 7, 8, 9, 10, 11, 19, 12, 12, 12, 12, 12, 12, 12, 13, 13; int(0..21)],
         [0, 1, 2, 3, 4, 5, 6, 7, 8, 9, 10, 11, 20, 12, 12, 12, 12, 12, 12, 12, 12, 13; int(0..21)],
         [0, 1, 2, 3, 4, 5, 6, 7, 8, 9, 10, 11, 21, 12, 12, 12, 12, 12, 12, 12, 12, 12; int(0..21)],
         [0, 1, 2, 3, 4, 5, 6, 7, 8, 9, 10, 12, 11, 12, 12, 12, 12, 12, 12, 12, 12, 12; int(0..21)],
         [0, 1, 2, 3, 4, 5, 6, 7, 8, 9, 10, 13, 11, 11, 12, 12, 12, 12, 12, 12, 12, 12; int(0..21)],
         [0, 1, 2, 3, 4, 5, 6, 7, 8, 9, 10, 14, 11, 11, 11, 12, 12, 12, 12, 12, 12, 12; int(0..21)],
         [0, 1, 2, 3, 4, 5, 6, 7, 8, 9, 10, 15, 11, 11, 11, 11, 12, 12, 12, 12, 12, 12; int(0..21)],
         [0, 1, 2, 3, 4, 5, 6, 7, 8, 9, 10, 16, 11, 11, 11, 11, 11, 12, 12, 12, 12, 12; int(0..21)],
         [0, 1, 2, 3, 4, 5, 6, 7, 8, 9, 10, 17, 11, 11, 11, 11, 11, 11, 12, 12, 12, 12; int(0..21)],
         [0, 1, 2, 3, 4, 5, 6, 7, 8, 9, 10, 18, 11, 11, 11, 11, 11, 11, 11, 12, 12, 12; int(0..21)],
         [0, 1, 2, 3, 4, 5, 6, 7, 8, 9, 10, 19, 11, 11, 11, 11, 11, 11, 11, 11, 12, 12; int(0..21)],
         [0, 1, 2, 3, 4, 5, 6, 7, 8, 9, 10, 20, 11, 11, 11, 11, 11, 11, 11, 11, 11, 12; int(0..21)],
         [0, 1, 2, 3, 4, 5, 6, 7, 8, 9, 10, 21, 11, 11, 11, 11, 11, 11, 11, 11, 11, 11; int(0..21)],
         [0, 1, 2, 3, 4, 5, 6, 7, 8, 9, 11, 10, 11, 11, 11, 11, 11, 11, 11, 11, 11, 11; int(0..21)],
         [0, 1, 2, 3, 4, 5, 6, 7, 8, 9, 12, 10, 10, 11, 11, 11, 11, 11, 11, 11, 11, 11; int(0..21)],
         [0, 1, 2, 3, 4, 5, 6, 7, 8, 9, 13, 10, 10, 10, 11, 11, 11, 11, 11, 11, 11, 11; int(0..21)],
         [0, 1, 2, 3, 4, 5, 6, 7, 8, 9, 14, 10, 10, 10, 10, 11, 11, 11, 11, 11, 11, 11; int(0..21)],
         [0, 1, 2, 3, 4, 5, 6, 7, 8, 9, 15, 10, 10, 10, 10, 10, 11, 11, 11, 11, 11, 11; int(0..21)],
         [0, 1, 2, 3, 4, 5, 6, 7, 8, 9, 16, 10, 10, 10, 10, 10, 10, 11, 11, 11, 11, 11; int(0..21)],
         [0, 1, 2, 3, 4, 5, 6, 7, 8, 9, 17, 10, 10, 10, 10, 10, 10, 10, 11, 11, 11, 11; int(0..21)],
         [0, 1, 2, 3, 4, 5, 6, 7, 8, 9, 18, 10, 10, 10, 10, 10, 10, 10, 10, 11, 11, 11; int(0..21)],
         [0, 1, 2, 3, 4, 5, 6, 7, 8, 9, 19, 10, 10, 10, 10, 10, 10, 10, 10, 10, 11, 11; int(0..21)],
         [0, 1, 2, 3, 4, 5, 6, 7, 8, 9, 20, 10, 10, 10, 10, 10, 10, 10, 10, 10, 10, 11; int(0..21)],
         [0, 1, 2, 3, 4, 5, 6, 7, 8, 9, 21, 10, 10, 10, 10, 10, 10, 10, 10, 10, 10, 10; int(0..21)],
         [0, 1, 2, 3, 4, 5, 6, 7, 8, 10, 9, 10, 10, 10, 10, 10, 10, 10, 10, 10, 10, 10; int(0..21)],
         [0, 1, 2, 3, 4, 5, 6, 7, 8, 11, 9, 9, 10, 10, 10, 10, 10, 10, 10, 10, 10, 10; int(0..21)],
         [0, 1, 2, 3, 4, 5, 6, 7, 8, 12, 9, 9, 9, 10, 10, 10, 10, 10, 10, 10, 10, 10; int(0..21)],
         [0, 1, 2, 3, 4, 5, 6, 7, 8, 13, 9, 9, 9, 9, 10, 10, 10, 10, 10, 10, 10, 10; int(0..21)],
         [0, 1, 2, 3, 4, 5, 6, 7, 8, 14, 9, 9, 9, 9, 9, 10, 10, 10, 10, 10, 10, 10; int(0..21)],
         [0, 1, 2, 3, 4, 5, 6, 7, 8, 15, 9, 9, 9, 9, 9, 9, 10, 10, 10, 10, 10, 10; int(0..21)],
         [0, 1, 2, 3, 4, 5, 6, 7, 8, 16, 9, 9, 9, 9, 9, 9, 9, 10, 10, 10, 10, 10; int(0..21)],
         [0, 1, 2, 3, 4, 5, 6, 7, 8, 17, 9, 9, 9, 9, 9, 9, 9, 9, 10, 10, 10, 10; int(0..21)],
         [0, 1, 2, 3, 4, 5, 6, 7, 8, 18, 9, 9, 9, 9, 9, 9, 9, 9, 9, 10, 10, 10; int(0..21)],
         [0, 1, 2, 3, 4, 5, 6, 7, 8, 19, 9, 9, 9, 9, 9, 9, 9, 9, 9, 9, 10, 10; int(0..21)],
         [0, 1, 2, 3, 4, 5, 6, 7, 8, 20, 9, 9, 9, 9, 9, 9, 9, 9, 9, 9, 9, 10; int(0..21)],
         [0, 1, 2, 3, 4, 5, 6, 7, 8, 21, 9, 9, 9, 9, 9, 9, 9, 9, 9, 9, 9, 9; int(0..21)],
         [0, 1, 2, 3, 4, 5, 6, 7, 9, 8, 9, 9, 9, 9, 9, 9, 9, 9, 9, 9, 9, 9; int(0..21)],
         [0, 1, 2, 3, 4, 5, 6, 7, 10, 8, 8, 9, 9, 9, 9, 9, 9, 9, 9, 9, 9, 9; int(0..21)],
         [0, 1, 2, 3, 4, 5, 6, 7, 11, 8, 8, 8, 9, 9, 9, 9, 9, 9, 9, 9, 9, 9; int(0..21)],
         [0, 1, 2, 3, 4, 5, 6, 7, 12, 8, 8, 8, 8, 9, 9, 9, 9, 9, 9, 9, 9, 9; int(0..21)],
         [0, 1, 2, 3, 4, 5, 6, 7, 13, 8, 8, 8, 8, 8, 9, 9, 9, 9, 9, 9, 9, 9; int(0..21)],
         [0, 1, 2, 3, 4, 5, 6, 7, 14, 8, 8, 8, 8, 8, 8, 9, 9, 9, 9, 9, 9, 9; int(0..21)],
         [0, 1, 2, 3, 4, 5, 6, 7, 15, 8, 8, 8, 8, 8, 8, 8, 9, 9, 9, 9, 9, 9; int(0..21)],
         [0, 1, 2, 3, 4, 5, 6, 7, 16, 8, 8, 8, 8, 8, 8, 8, 8, 9, 9, 9, 9, 9; int(0..21)],
         [0, 1, 2, 3, 4, 5, 6, 7, 17, 8, 8, 8, 8, 8, 8, 8, 8, 8, 9, 9, 9, 9; int(0..21)],
         [0, 1, 2, 3, 4, 5, 6, 7, 18, 8, 8, 8, 8, 8, 8, 8, 8, 8, 8, 9, 9, 9; int(0..21)],
         [0, 1, 2, 3, 4, 5, 6, 7, 19, 8, 8, 8, 8, 8, 8, 8, 8, 8, 8, 8, 9, 9; int(0..21)],
         [0, 1, 2, 3, 4, 5, 6, 7, 20, 8, 8, 8, 8, 8, 8, 8, 8, 8, 8, 8, 8, 9; int(0..21)],
         [0, 1, 2, 3, 4, 5, 6, 7, 21, 8, 8, 8, 8, 8, 8, 8, 8, 8, 8, 8, 8, 8; int(0..21)],
         [0, 1, 2, 3, 4, 5, 6, 8, 7, 8, 8, 8, 8, 8, 8, 8, 8, 8, 8, 8, 8, 8; int(0..21)],
         [0, 1, 2, 3, 4, 5, 6, 9, 7, 7, 8, 8, 8, 8, 8, 8, 8, 8, 8, 8, 8, 8; int(0..21)],
         [0, 1, 2, 3, 4, 5, 6, 10, 7, 7, 7, 8, 8, 8, 8, 8, 8, 8, 8, 8, 8, 8; int(0..21)],
         [0, 1, 2, 3, 4, 5, 6, 11, 7, 7, 7, 7, 8, 8, 8, 8, 8, 8, 8, 8, 8, 8; int(0..21)],
         [0, 1, 2, 3, 4, 5, 6, 12, 7, 7, 7, 7, 7, 8, 8, 8, 8, 8, 8, 8, 8, 8; int(0..21)],
         [0, 1, 2, 3, 4, 5, 6, 13, 7, 7, 7, 7, 7, 7, 8, 8, 8, 8, 8, 8, 8, 8; int(0..21)],
         [0, 1, 2, 3, 4, 5, 6, 14, 7, 7, 7, 7, 7, 7, 7, 8, 8, 8, 8, 8, 8, 8; int(0..21)],
         [0, 1, 2, 3, 4, 5, 6, 15, 7, 7, 7, 7, 7, 7, 7, 7, 8, 8, 8, 8, 8, 8; int(0..21)],
         [0, 1, 2, 3, 4, 5, 6, 16, 7, 7, 7, 7, 7, 7, 7, 7, 7, 8, 8, 8, 8, 8; int(0..21)],
         [0, 1, 2, 3, 4, 5, 6, 17, 7, 7, 7, 7, 7, 7, 7, 7, 7, 7, 8, 8, 8, 8; int(0..21)],
         [0, 1, 2, 3, 4, 5, 6, 18, 7, 7, 7, 7, 7, 7, 7, 7, 7, 7, 7, 8, 8, 8; int(0..21)],
         [0, 1, 2, 3, 4, 5, 6, 19, 7, 7, 7, 7, 7, 7, 7, 7, 7, 7, 7, 7, 8, 8; int(0..21)],
         [0, 1, 2, 3, 4, 5, 6, 20, 7, 7, 7, 7, 7, 7, 7, 7, 7, 7, 7, 7, 7, 8; int(0..21)],
         [0, 1, 2, 3, 4, 5, 6, 21, 7, 7, 7, 7, 7, 7, 7, 7, 7, 7, 7, 7, 7, 7; int(0..21)],
         [0, 1, 2, 3, 4, 5, 7, 6, 7, 7, 7, 7, 7, 7, 7, 7, 7, 7, 7, 7, 7, 7; int(0..21)],
         [0, 1, 2, 3, 4, 5, 8, 6, 6, 7, 7, 7, 7, 7, 7, 7, 7, 7, 7, 7, 7, 7; int(0..21)],
         [0, 1, 2, 3, 4, 5, 9, 6, 6, 6, 7, 7, 7, 7, 7, 7, 7, 7, 7, 7, 7, 7; int(0..21)],
         [0, 1, 2, 3, 4, 5, 10, 6, 6, 6, 6, 7, 7, 7, 7, 7, 7, 7, 7, 7, 7, 7; int(0..21)],
         [0, 1, 2, 3, 4, 5, 11, 6, 6, 6, 6, 6, 7, 7, 7, 7, 7, 7, 7, 7, 7, 7; int(0..21)],
         [0, 1, 2, 3, 4, 5, 12, 6, 6, 6, 6, 6, 6, 7, 7, 7, 7, 7, 7, 7, 7, 7; int(0..21)],
         [0, 1, 2, 3, 4, 5, 13, 6, 6, 6, 6, 6, 6, 6, 7, 7, 7, 7, 7, 7, 7, 7; int(0..21)],
         [0, 1, 2, 3, 4, 5, 14, 6, 6, 6, 6, 6, 6, 6, 6, 7, 7, 7, 7, 7, 7, 7; int(0..21)],
         [0, 1, 2, 3, 4, 5, 15, 6, 6, 6, 6, 6, 6, 6, 6, 6, 7, 7, 7, 7, 7, 7; int(0..21)],
         [0, 1, 2, 3, 4, 5, 16, 6, 6, 6, 6, 6, 6, 6, 6, 6, 6, 7, 7, 7, 7, 7; int(0..21)],
         [0, 1, 2, 3, 4, 5, 17, 6, 6, 6, 6, 6, 6, 6, 6, 6, 6, 6, 7, 7, 7, 7; int(0..21)],
         [0, 1, 2, 3, 4, 5, 18, 6, 6, 6, 6, 6, 6, 6, 6, 6, 6, 6, 6, 7, 7, 7; int(0..21)],
         [0, 1, 2, 3, 4, 5, 19, 6, 6, 6, 6, 6, 6, 6, 6, 6, 6, 6, 6, 6, 7, 7; int(0..21)],
         [0, 1, 2, 3, 4, 5, 20, 6, 6, 6, 6, 6, 6, 6, 6, 6, 6, 6, 6, 6, 6, 7; int(0..21)],
         [0, 1, 2, 3, 4, 5, 21, 6, 6, 6, 6, 6, 6, 6, 6, 6, 6, 6, 6, 6, 6, 6; int(0..21)],
         [0, 1, 2, 3, 4, 6, 5, 6, 6, 6, 6, 6, 6, 6, 6, 6, 6, 6, 6, 6, 6, 6; int(0..21)],
         [0, 1, 2, 3, 4, 7, 5, 5, 6, 6, 6, 6, 6, 6, 6, 6, 6, 6, 6, 6, 6, 6; int(0..21)],
         [0, 1, 2, 3, 4, 8, 5, 5, 5, 6, 6, 6, 6, 6, 6, 6, 6, 6, 6, 6, 6, 6; int(0..21)],
         [0, 1, 2, 3, 4, 9, 5, 5, 5, 5, 6, 6, 6, 6, 6, 6, 6, 6, 6, 6, 6, 6; int(0..21)],
         [0, 1, 2, 3, 4, 10, 5, 5, 5, 5, 5, 6, 6, 6, 6, 6, 6, 6, 6, 6, 6, 6; int(0..21)],
         [0, 1, 2, 3, 4, 11, 5, 5, 5, 5, 5, 5, 6, 6, 6, 6, 6, 6, 6, 6, 6, 6; int(0..21)],
         [0, 1, 2, 3, 4, 12, 5, 5, 5, 5, 5, 5, 5, 6, 6, 6, 6, 6, 6, 6, 6, 6; int(0..21)],
         [0, 1, 2, 3, 4, 13, 5, 5, 5, 5, 5, 5, 5, 5, 6, 6, 6, 6, 6, 6, 6, 6; int(0..21)],
         [0, 1, 2, 3, 4, 14, 5, 5, 5, 5, 5, 5, 5, 5, 5, 6, 6, 6, 6, 6, 6, 6; int(0..21)],
         [0, 1, 2, 3, 4, 15, 5, 5, 5, 5, 5, 5, 5, 5, 5, 5, 6, 6, 6, 6, 6, 6; int(0..21)],
         [0, 1, 2, 3, 4, 16, 5, 5, 5, 5, 5, 5, 5, 5, 5, 5, 5, 6, 6, 6, 6, 6; int(0..21)],
         [0, 1, 2, 3, 4, 17, 5, 5, 5, 5, 5, 5, 5, 5, 5, 5, 5, 5, 6, 6, 6, 6; int(0..21)],
         [0, 1, 2, 3, 4, 18, 5, 5, 5, 5, 5, 5, 5, 5, 5, 5, 5, 5, 5, 6, 6, 6; int(0..21)],
         [0, 1, 2, 3, 4, 19, 5, 5, 5, 5, 5, 5, 5, 5, 5, 5, 5, 5, 5, 5, 6, 6; int(0..21)],
         [0, 1, 2, 3, 4, 20, 5, 5, 5, 5, 5, 5, 5, 5, 5, 5, 5, 5, 5, 5, 5, 6; int(0..21)],
         [0, 1, 2, 3, 4, 21, 5, 5, 5, 5, 5, 5, 5, 5, 5, 5, 5, 5, 5, 5, 5, 5; int(0..21)],
         [0, 1, 2, 3, 5, 4, 5, 5, 5, 5, 5, 5, 5, 5, 5, 5, 5, 5, 5, 5, 5, 5; int(0..21)],
         [0, 1, 2, 3, 6, 4, 4, 5, 5, 5, 5, 5, 5, 5, 5, 5, 5, 5, 5, 5, 5, 5; int(0..21)],
         [0, 1, 2, 3, 7, 4, 4, 4, 5, 5, 5, 5, 5, 5, 5, 5, 5, 5, 5, 5, 5, 5; int(0..21)],
         [0, 1, 2, 3, 8, 4, 4, 4, 4, 5, 5, 5, 5, 5, 5, 5, 5, 5, 5, 5, 5, 5; int(0..21)],
         [0, 1, 2, 3, 9, 4, 4, 4, 4, 4, 5, 5, 5, 5, 5, 5, 5, 5, 5, 5, 5, 5; int(0..21)],
         [0, 1, 2, 3, 10, 4, 4, 4, 4, 4, 4, 5, 5, 5, 5, 5, 5, 5, 5, 5, 5, 5; int(0..21)],
         [0, 1, 2, 3, 11, 4, 4, 4, 4, 4, 4, 4, 5, 5, 5, 5, 5, 5, 5, 5, 5, 5; int(0..21)],
         [0, 1, 2, 3, 12, 4, 4, 4, 4, 4, 4, 4, 4, 5, 5, 5, 5, 5, 5, 5, 5, 5; int(0..21)],
         [0, 1, 2, 3, 13, 4, 4, 4, 4, 4, 4, 4, 4, 4, 5, 5, 5, 5, 5, 5, 5, 5; int(0..21)],
         [0, 1, 2, 3, 14, 4, 4, 4, 4, 4, 4, 4, 4, 4, 4, 5, 5, 5, 5, 5, 5, 5; int(0..21)],
         [0, 1, 2, 3, 15, 4, 4, 4, 4, 4, 4, 4, 4, 4, 4, 4, 5, 5, 5, 5, 5, 5; int(0..21)],
         [0, 1, 2, 3, 16, 4, 4, 4, 4, 4, 4, 4, 4, 4, 4, 4, 4, 5, 5, 5, 5, 5; int(0..21)],
         [0, 1, 2, 3, 17, 4, 4, 4, 4, 4, 4, 4, 4, 4, 4, 4, 4, 4, 5, 5, 5, 5; int(0..21)],
         [0, 1, 2, 3, 18, 4, 4, 4, 4, 4, 4, 4, 4, 4, 4, 4, 4, 4, 4, 5, 5, 5; int(0..21)],
         [0, 1, 2, 3, 19, 4, 4, 4, 4, 4, 4, 4, 4, 4, 4, 4, 4, 4, 4, 4, 5, 5; int(0..21)],
         [0, 1, 2, 3, 20, 4, 4, 4, 4, 4, 4, 4, 4, 4, 4, 4, 4, 4, 4, 4, 4, 5; int(0..21)],
         [0, 1, 2, 3, 21, 4, 4, 4, 4, 4, 4, 4, 4, 4, 4, 4, 4, 4, 4, 4, 4, 4; int(0..21)],
         [0, 1, 2, 4, 3, 4, 4, 4, 4, 4, 4, 4, 4, 4, 4, 4, 4, 4, 4, 4, 4, 4; int(0..21)],
         [0, 1, 2, 5, 3, 3, 4, 4, 4, 4, 4, 4, 4, 4, 4, 4, 4, 4, 4, 4, 4, 4; int(0..21)],
         [0, 1, 2, 6, 3, 3, 3, 4, 4, 4, 4, 4, 4, 4, 4, 4, 4, 4, 4, 4, 4, 4; int(0..21)],
         [0, 1, 2, 7, 3, 3, 3, 3, 4, 4, 4, 4, 4, 4, 4, 4, 4, 4, 4, 4, 4, 4; int(0..21)],
         [0, 1, 2, 8, 3, 3, 3, 3, 3, 4, 4, 4, 4, 4, 4, 4, 4, 4, 4, 4, 4, 4; int(0..21)],
         [0, 1, 2, 9, 3, 3, 3, 3, 3, 3, 4, 4, 4, 4, 4, 4, 4, 4, 4, 4, 4, 4; int(0..21)],
         [0, 1, 2, 10, 3, 3, 3, 3, 3, 3, 3, 4, 4, 4, 4, 4, 4, 4, 4, 4, 4, 4; int(0..21)],
         [0, 1, 2, 11, 3, 3, 3, 3, 3, 3, 3, 3, 4, 4, 4, 4, 4, 4, 4, 4, 4, 4; int(0..21)],
         [0, 1, 2, 12, 3, 3, 3, 3, 3, 3, 3, 3, 3, 4, 4, 4, 4, 4, 4, 4, 4, 4; int(0..21)],
         [0, 1, 2, 13, 3, 3, 3, 3, 3, 3, 3, 3, 3, 3, 4, 4, 4, 4, 4, 4, 4, 4; int(0..21)],
         [0, 1, 2, 14, 3, 3, 3, 3, 3, 3, 3, 3, 3, 3, 3, 4, 4, 4, 4, 4, 4, 4; int(0..21)],
         [0, 1, 2, 15, 3, 3, 3, 3, 3, 3, 3, 3, 3, 3, 3, 3, 4, 4, 4, 4, 4, 4; int(0..21)],
         [0, 1, 2, 16, 3, 3, 3, 3, 3, 3, 3, 3, 3, 3, 3, 3, 3, 4, 4, 4, 4, 4; int(0..21)],
         [0, 1, 2, 17, 3, 3, 3, 3, 3, 3, 3, 3, 3, 3, 3, 3, 3, 3, 4, 4, 4, 4; int(0..21)],
         [0, 1, 2, 18, 3, 3, 3, 3, 3, 3, 3, 3, 3, 3, 3, 3, 3, 3, 3, 4, 4, 4; int(0..21)],
         [0, 1, 2, 19, 3, 3, 3, 3, 3, 3, 3, 3, 3, 3, 3, 3, 3, 3, 3, 3, 4, 4; int(0..21)],
         [0, 1, 2, 20, 3, 3, 3, 3, 3, 3, 3, 3, 3, 3, 3, 3, 3, 3, 3, 3, 3, 4; int(0..21)],
         [0, 1, 2, 21, 3, 3, 3, 3, 3, 3, 3, 3, 3, 3, 3, 3, 3, 3, 3, 3, 3, 3; int(0..21)],
         [0, 1, 3, 2, 3, 3, 3, 3, 3, 3, 3, 3, 3, 3, 3, 3, 3, 3, 3, 3, 3, 3; int(0..21)],
         [0, 1, 4, 2, 2, 3, 3, 3, 3, 3, 3, 3, 3, 3, 3, 3, 3, 3, 3, 3, 3, 3; int(0..21)],
         [0, 1, 5, 2, 2, 2, 3, 3, 3, 3, 3, 3, 3, 3, 3, 3, 3, 3, 3, 3, 3, 3; int(0..21)],
         [0, 1, 6, 2, 2, 2, 2, 3, 3, 3, 3, 3, 3, 3, 3, 3, 3, 3, 3, 3, 3, 3; int(0..21)],
         [0, 1, 7, 2, 2, 2, 2, 2, 3, 3, 3, 3, 3, 3, 3, 3, 3, 3, 3, 3, 3, 3; int(0..21)],
         [0, 1, 8, 2, 2, 2, 2, 2, 2, 3, 3, 3, 3, 3, 3, 3, 3, 3, 3, 3, 3, 3; int(0..21)],
         [0, 1, 9, 2, 2, 2, 2, 2, 2, 2, 3, 3, 3, 3, 3, 3, 3, 3, 3, 3, 3, 3; int(0..21)],
         [0, 1, 10, 2, 2, 2, 2, 2, 2, 2, 2, 3, 3, 3, 3, 3, 3, 3, 3, 3, 3, 3; int(0..21)],
         [0, 1, 11, 2, 2, 2, 2, 2, 2, 2, 2, 2, 3, 3, 3, 3, 3, 3, 3, 3, 3, 3; int(0..21)],
         [0, 1, 12, 2, 2, 2, 2, 2, 2, 2, 2, 2, 2, 3, 3, 3, 3, 3, 3, 3, 3, 3; int(0..21)],
         [0, 1, 13, 2, 2, 2, 2, 2, 2, 2, 2, 2, 2, 2, 3, 3, 3, 3, 3, 3, 3, 3; int(0..21)],
         [0, 1, 14, 2, 2, 2, 2, 2, 2, 2, 2, 2, 2, 2, 2, 3, 3, 3, 3, 3, 3, 3; int(0..21)],
         [0, 1, 15, 2, 2, 2, 2, 2, 2, 2, 2, 2, 2, 2, 2, 2, 3, 3, 3, 3, 3, 3; int(0..21)],
         [0, 1, 16, 2, 2, 2, 2, 2, 2, 2, 2, 2, 2, 2, 2, 2, 2, 3, 3, 3, 3, 3; int(0..21)],
         [0, 1, 17, 2, 2, 2, 2, 2, 2, 2, 2, 2, 2, 2, 2, 2, 2, 2, 3, 3, 3, 3; int(0..21)],
         [0, 1, 18, 2, 2, 2, 2, 2, 2, 2, 2, 2, 2, 2, 2, 2, 2, 2, 2, 3, 3, 3; int(0..21)],
         [0, 1, 19, 2, 2, 2, 2, 2, 2, 2, 2, 2, 2, 2, 2, 2, 2, 2, 2, 2, 3, 3; int(0..21)],
         [0, 1, 20, 2, 2, 2, 2, 2, 2, 2, 2, 2, 2, 2, 2, 2, 2, 2, 2, 2, 2, 3; int(0..21)],
         [0, 1, 21, 2, 2, 2, 2, 2, 2, 2, 2, 2, 2, 2, 2, 2, 2, 2, 2, 2, 2, 2; int(0..21)],
         [0, 2, 1, 2, 2, 2, 2, 2, 2, 2, 2, 2, 2, 2, 2, 2, 2, 2, 2, 2, 2, 2; int(0..21)],
         [0, 3, 1, 1, 2, 2, 2, 2, 2, 2, 2, 2, 2, 2, 2, 2, 2, 2, 2, 2, 2, 2; int(0..21)],
         [0, 4, 1, 1, 1, 2, 2, 2, 2, 2, 2, 2, 2, 2, 2, 2, 2, 2, 2, 2, 2, 2; int(0..21)],
         [0, 5, 1, 1, 1, 1, 2, 2, 2, 2, 2, 2, 2, 2, 2, 2, 2, 2, 2, 2, 2, 2; int(0..21)],
         [0, 6, 1, 1, 1, 1, 1, 2, 2, 2, 2, 2, 2, 2, 2, 2, 2, 2, 2, 2, 2, 2; int(0..21)],
         [0, 7, 1, 1, 1, 1, 1, 1, 2, 2, 2, 2, 2, 2, 2, 2, 2, 2, 2, 2, 2, 2; int(0..21)],
         [0, 8, 1, 1, 1, 1, 1, 1, 1, 2, 2, 2, 2, 2, 2, 2, 2, 2, 2, 2, 2, 2; int(0..21)],
         [0, 9, 1, 1, 1, 1, 1, 1, 1, 1, 2, 2, 2, 2, 2, 2, 2, 2, 2, 2, 2, 2; int(0..21)],
         [0, 10, 1, 1, 1, 1, 1, 1, 1, 1, 1, 2, 2, 2, 2, 2, 2, 2, 2, 2, 2, 2; int(0..21)],
         [0, 11, 1, 1, 1, 1, 1, 1, 1, 1, 1, 1, 2, 2, 2, 2, 2, 2, 2, 2, 2, 2; int(0..21)],
         [0, 12, 1, 1, 1, 1, 1, 1, 1, 1, 1, 1, 1, 2, 2, 2, 2, 2, 2, 2, 2, 2; int(0..21)],
         [0, 13, 1, 1, 1, 1, 1, 1, 1, 1, 1, 1, 1, 1, 2, 2, 2, 2, 2, 2, 2, 2; int(0..21)],
         [0, 14, 1, 1, 1, 1, 1, 1, 1, 1, 1, 1, 1, 1, 1, 2, 2, 2, 2, 2, 2, 2; int(0..21)],
         [0, 15, 1, 1, 1, 1, 1, 1, 1, 1, 1, 1, 1, 1, 1, 1, 2, 2, 2, 2, 2, 2; int(0..21)],
         [0, 16, 1, 1, 1, 1, 1, 1, 1, 1, 1, 1, 1, 1, 1, 1, 1, 2, 2, 2, 2, 2; int(0..21)],
         [0, 17, 1, 1, 1, 1, 1, 1, 1, 1, 1, 1, 1, 1, 1, 1, 1, 1, 2, 2, 2, 2; int(0..21)],
         [0, 18, 1, 1, 1, 1, 1, 1, 1, 1, 1, 1, 1, 1, 1, 1, 1, 1, 1, 2, 2, 2; int(0..21)],
         [0, 19, 1, 1, 1, 1, 1, 1, 1, 1, 1, 1, 1, 1, 1, 1, 1, 1, 1, 1, 2, 2; int(0..21)],
         [0, 20, 1, 1, 1, 1, 1, 1, 1, 1, 1, 1, 1, 1, 1, 1, 1, 1, 1, 1, 1, 2; int(0..21)],
         [0, 21, 1, 1, 1, 1, 1, 1, 1, 1, 1, 1, 1, 1, 1, 1, 1, 1, 1, 1, 1, 1; int(0..21)],
         [1, 0, 1, 1, 1, 1, 1, 1, 1, 1, 1, 1, 1, 1, 1, 1, 1, 1, 1, 1, 1, 1; int(0..21)],
         [2, 0, 0, 1, 1, 1, 1, 1, 1, 1, 1, 1, 1, 1, 1, 1, 1, 1, 1, 1, 1, 1; int(0..21)],
         [3, 0, 0, 0, 1, 1, 1, 1, 1, 1, 1, 1, 1, 1, 1, 1, 1, 1, 1, 1, 1, 1; int(0..21)],
         [4, 0, 0, 0, 0, 1, 1, 1, 1, 1, 1, 1, 1, 1, 1, 1, 1, 1, 1, 1, 1, 1; int(0..21)],
         [5, 0, 0, 0, 0, 0, 1, 1, 1, 1, 1, 1, 1, 1, 1, 1, 1, 1, 1, 1, 1, 1; int(0..21)],
         [6, 0, 0, 0, 0, 0, 0, 1, 1, 1, 1, 1, 1, 1, 1, 1, 1, 1, 1, 1, 1, 1; int(0..21)],
         [7, 0, 0, 0, 0, 0, 0, 0, 1, 1, 1, 1, 1, 1, 1, 1, 1, 1, 1, 1, 1, 1; int(0..21)],
         [8, 0, 0, 0, 0, 0, 0, 0, 0, 1, 1, 1, 1, 1, 1, 1, 1, 1, 1, 1, 1, 1; int(0..21)],
         [9, 0, 0, 0, 0, 0, 0, 0, 0, 0, 1, 1, 1, 1, 1, 1, 1, 1, 1, 1, 1, 1; int(0..21)],
         [10, 0, 0, 0, 0, 0, 0, 0, 0, 0, 0, 1, 1, 1, 1, 1, 1, 1, 1, 1, 1, 1; int(0..21)],
         [11, 0, 0, 0, 0, 0, 0, 0, 0, 0, 0, 0, 1, 1, 1, 1, 1, 1, 1, 1, 1, 1; int(0..21)],
         [12, 0, 0, 0, 0, 0, 0, 0, 0, 0, 0, 0, 0, 1, 1, 1, 1, 1, 1, 1, 1, 1; int(0..21)],
         [13, 0, 0, 0, 0, 0, 0, 0, 0, 0, 0, 0, 0, 0, 1, 1, 1, 1, 1, 1, 1, 1; int(0..21)],
         [14, 0, 0, 0, 0, 0, 0, 0, 0, 0, 0, 0, 0, 0, 0, 1, 1, 1, 1, 1, 1, 1; int(0..21)],
         [15, 0, 0, 0, 0, 0, 0, 0, 0, 0, 0, 0, 0, 0, 0, 0, 1, 1, 1, 1, 1, 1; int(0..21)],
         [16, 0, 0, 0, 0, 0, 0, 0, 0, 0, 0, 0, 0, 0, 0, 0, 0, 1, 1, 1, 1, 1; int(0..21)],
         [17, 0, 0, 0, 0, 0, 0, 0, 0, 0, 0, 0, 0, 0, 0, 0, 0, 0, 1, 1, 1, 1; int(0..21)],
         [18, 0, 0, 0, 0, 0, 0, 0, 0, 0, 0, 0, 0, 0, 0, 0, 0, 0, 0, 1, 1, 1; int(0..21)],
         [19, 0, 0, 0, 0, 0, 0, 0, 0, 0, 0, 0, 0, 0, 0, 0, 0, 0, 0, 0, 1, 1; int(0..21)],
         [20, 0, 0, 0, 0, 0, 0, 0, 0, 0, 0, 0, 0, 0, 0, 0, 0, 0, 0, 0, 0, 1; int(0..21)],
         [21, 0, 0, 0, 0, 0, 0, 0, 0, 0, 0, 0, 0, 0, 0, 0, 0, 0, 0, 0, 0, 0; int(0..21)];
             int(0..231)]
$ Visualisation for SGS_FunctionND
$  0  1  2  3  4  5  6  7  8  9 10 11 12 13 14 15 16 17 18 19 20 21
$  0  1  2  3  4  5  6  7  8  9 10 11 12 13 14 15 16 17 18 19 21 20
$  0  1  2  3  4  5  6  7  8  9 10 11 12 13 14 15 16 17 18 20 19 20
$  0  1  2  3  4  5  6  7  8  9 10 11 12 13 14 15 16 17 18 21 19 19
$  0  1  2  3  4  5  6  7  8  9 10 11 12 13 14 15 16 17 19 18 19 19
$  0  1  2  3  4  5  6  7  8  9 10 11 12 13 14 15 16 17 20 18 18 19
$  0  1  2  3  4  5  6  7  8  9 10 11 12 13 14 15 16 17 21 18 18 18
$  0  1  2  3  4  5  6  7  8  9 10 11 12 13 14 15 16 18 17 18 18 18
$  0  1  2  3  4  5  6  7  8  9 10 11 12 13 14 15 16 19 17 17 18 18
$  0  1  2  3  4  5  6  7  8  9 10 11 12 13 14 15 16 20 17 17 17 18
$  0  1  2  3  4  5  6  7  8  9 10 11 12 13 14 15 16 21 17 17 17 17
$  0  1  2  3  4  5  6  7  8  9 10 11 12 13 14 15 17 16 17 17 17 17
$  0  1  2  3  4  5  6  7  8  9 10 11 12 13 14 15 18 16 16 17 17 17
$  0  1  2  3  4  5  6  7  8  9 10 11 12 13 14 15 19 16 16 16 17 17
$  0  1  2  3  4  5  6  7  8  9 10 11 12 13 14 15 20 16 16 16 16 17
$  0  1  2  3  4  5  6  7  8  9 10 11 12 13 14 15 21 16 16 16 16 16
$  0  1  2  3  4  5  6  7  8  9 10 11 12 13 14 16 15 16 16 16 16 16
$  0  1  2  3  4  5  6  7  8  9 10 11 12 13 14 17 15 15 16 16 16 16
$  0  1  2  3  4  5  6  7  8  9 10 11 12 13 14 18 15 15 15 16 16 16
$  0  1  2  3  4  5  6  7  8  9 10 11 12 13 14 19 15 15 15 15 16 16
$  0  1  2  3  4  5  6  7  8  9 10 11 12 13 14 20 15 15 15 15 15 16
$  0  1  2  3  4  5  6  7  8  9 10 11 12 13 14 21 15 15 15 15 15 15
$  0  1  2  3  4  5  6  7  8  9 10 11 12 13 15 14 15 15 15 15 15 15
$  0  1  2  3  4  5  6  7  8  9 10 11 12 13 16 14 14 15 15 15 15 15
$  0  1  2  3  4  5  6  7  8  9 10 11 12 13 17 14 14 14 15 15 15 15
$  0  1  2  3  4  5  6  7  8  9 10 11 12 13 18 14 14 14 14 15 15 15
$  0  1  2  3  4  5  6  7  8  9 10 11 12 13 19 14 14 14 14 14 15 15
$  0  1  2  3  4  5  6  7  8  9 10 11 12 13 20 14 14 14 14 14 14 15
$  0  1  2  3  4  5  6  7  8  9 10 11 12 13 21 14 14 14 14 14 14 14
$  0  1  2  3  4  5  6  7  8  9 10 11 12 14 13 14 14 14 14 14 14 14
$  0  1  2  3  4  5  6  7  8  9 10 11 12 15 13 13 14 14 14 14 14 14
$  0  1  2  3  4  5  6  7  8  9 10 11 12 16 13 13 13 14 14 14 14 14
$  0  1  2  3  4  5  6  7  8  9 10 11 12 17 13 13 13 13 14 14 14 14
$  0  1  2  3  4  5  6  7  8  9 10 11 12 18 13 13 13 13 13 14 14 14
$  0  1  2  3  4  5  6  7  8  9 10 11 12 19 13 13 13 13 13 13 14 14
$  0  1  2  3  4  5  6  7  8  9 10 11 12 20 13 13 13 13 13 13 13 14
$  0  1  2  3  4  5  6  7  8  9 10 11 12 21 13 13 13 13 13 13 13 13
$  0  1  2  3  4  5  6  7  8  9 10 11 13 12 13 13 13 13 13 13 13 13
$  0  1  2  3  4  5  6  7  8  9 10 11 14 12 12 13 13 13 13 13 13 13
$  0  1  2  3  4  5  6  7  8  9 10 11 15 12 12 12 13 13 13 13 13 13
$  0  1  2  3  4  5  6  7  8  9 10 11 16 12 12 12 12 13 13 13 13 13
$  0  1  2  3  4  5  6  7  8  9 10 11 17 12 12 12 12 12 13 13 13 13
$  0  1  2  3  4  5  6  7  8  9 10 11 18 12 12 12 12 12 12 13 13 13
$  0  1  2  3  4  5  6  7  8  9 10 11 19 12 12 12 12 12 12 12 13 13
$  0  1  2  3  4  5  6  7  8  9 10 11 20 12 12 12 12 12 12 12 12 13
$  0  1  2  3  4  5  6  7  8  9 10 11 21 12 12 12 12 12 12 12 12 12
$  0  1  2  3  4  5  6  7  8  9 10 12 11 12 12 12 12 12 12 12 12 12
$  0  1  2  3  4  5  6  7  8  9 10 13 11 11 12 12 12 12 12 12 12 12
$  0  1  2  3  4  5  6  7  8  9 10 14 11 11 11 12 12 12 12 12 12 12
$  0  1  2  3  4  5  6  7  8  9 10 15 11 11 11 11 12 12 12 12 12 12
$  0  1  2  3  4  5  6  7  8  9 10 16 11 11 11 11 11 12 12 12 12 12
$  0  1  2  3  4  5  6  7  8  9 10 17 11 11 11 11 11 11 12 12 12 12
$  0  1  2  3  4  5  6  7  8  9 10 18 11 11 11 11 11 11 11 12 12 12
$  0  1  2  3  4  5  6  7  8  9 10 19 11 11 11 11 11 11 11 11 12 12
$  0  1  2  3  4  5  6  7  8  9 10 20 11 11 11 11 11 11 11 11 11 12
$  0  1  2  3  4  5  6  7  8  9 10 21 11 11 11 11 11 11 11 11 11 11
$  0  1  2  3  4  5  6  7  8  9 11 10 11 11 11 11 11 11 11 11 11 11
$  0  1  2  3  4  5  6  7  8  9 12 10 10 11 11 11 11 11 11 11 11 11
$  0  1  2  3  4  5  6  7  8  9 13 10 10 10 11 11 11 11 11 11 11 11
$  0  1  2  3  4  5  6  7  8  9 14 10 10 10 10 11 11 11 11 11 11 11
$  0  1  2  3  4  5  6  7  8  9 15 10 10 10 10 10 11 11 11 11 11 11
$  0  1  2  3  4  5  6  7  8  9 16 10 10 10 10 10 10 11 11 11 11 11
$  0  1  2  3  4  5  6  7  8  9 17 10 10 10 10 10 10 10 11 11 11 11
$  0  1  2  3  4  5  6  7  8  9 18 10 10 10 10 10 10 10 10 11 11 11
$  0  1  2  3  4  5  6  7  8  9 19 10 10 10 10 10 10 10 10 10 11 11
$  0  1  2  3  4  5  6  7  8  9 20 10 10 10 10 10 10 10 10 10 10 11
$  0  1  2  3  4  5  6  7  8  9 21 10 10 10 10 10 10 10 10 10 10 10
$  0  1  2  3  4  5  6  7  8 10  9 10 10 10 10 10 10 10 10 10 10 10
$  0  1  2  3  4  5  6  7  8 11  9  9 10 10 10 10 10 10 10 10 10 10
$  0  1  2  3  4  5  6  7  8 12  9  9  9 10 10 10 10 10 10 10 10 10
$  0  1  2  3  4  5  6  7  8 13  9  9  9  9 10 10 10 10 10 10 10 10
$  0  1  2  3  4  5  6  7  8 14  9  9  9  9  9 10 10 10 10 10 10 10
$  0  1  2  3  4  5  6  7  8 15  9  9  9  9  9  9 10 10 10 10 10 10
$  0  1  2  3  4  5  6  7  8 16  9  9  9  9  9  9  9 10 10 10 10 10
$  0  1  2  3  4  5  6  7  8 17  9  9  9  9  9  9  9  9 10 10 10 10
$  0  1  2  3  4  5  6  7  8 18  9  9  9  9  9  9  9  9  9 10 10 10
$  0  1  2  3  4  5  6  7  8 19  9  9  9  9  9  9  9  9  9  9 10 10
$  0  1  2  3  4  5  6  7  8 20  9  9  9  9  9  9  9  9  9  9  9 10
$  0  1  2  3  4  5  6  7  8 21  9  9  9  9  9  9  9  9  9  9  9  9
$  0  1  2  3  4  5  6  7  9  8  9  9  9  9  9  9  9  9  9  9  9  9
$  0  1  2  3  4  5  6  7 10  8  8  9  9  9  9  9  9  9  9  9  9  9
$  0  1  2  3  4  5  6  7 11  8  8  8  9  9  9  9  9  9  9  9  9  9
$  0  1  2  3  4  5  6  7 12  8  8  8  8  9  9  9  9  9  9  9  9  9
$  0  1  2  3  4  5  6  7 13  8  8  8  8  8  9  9  9  9  9  9  9  9
$  0  1  2  3  4  5  6  7 14  8  8  8  8  8  8  9  9  9  9  9  9  9
$  0  1  2  3  4  5  6  7 15  8  8  8  8  8  8  8  9  9  9  9  9  9
$  0  1  2  3  4  5  6  7 16  8  8  8  8  8  8  8  8  9  9  9  9  9
$  0  1  2  3  4  5  6  7 17  8  8  8  8  8  8  8  8  8  9  9  9  9
$  0  1  2  3  4  5  6  7 18  8  8  8  8  8  8  8  8  8  8  9  9  9
$  0  1  2  3  4  5  6  7 19  8  8  8  8  8  8  8  8  8  8  8  9  9
$  0  1  2  3  4  5  6  7 20  8  8  8  8  8  8  8  8  8  8  8  8  9
$  0  1  2  3  4  5  6  7 21  8  8  8  8  8  8  8  8  8  8  8  8  8
$  0  1  2  3  4  5  6  8  7  8  8  8  8  8  8  8  8  8  8  8  8  8
$  0  1  2  3  4  5  6  9  7  7  8  8  8  8  8  8  8  8  8  8  8  8
$  0  1  2  3  4  5  6 10  7  7  7  8  8  8  8  8  8  8  8  8  8  8
$  0  1  2  3  4  5  6 11  7  7  7  7  8  8  8  8  8  8  8  8  8  8
$  0  1  2  3  4  5  6 12  7  7  7  7  7  8  8  8  8  8  8  8  8  8
$  0  1  2  3  4  5  6 13  7  7  7  7  7  7  8  8  8  8  8  8  8  8
$  0  1  2  3  4  5  6 14  7  7  7  7  7  7  7  8  8  8  8  8  8  8
$  0  1  2  3  4  5  6 15  7  7  7  7  7  7  7  7  8  8  8  8  8  8
$  0  1  2  3  4  5  6 16  7  7  7  7  7  7  7  7  7  8  8  8  8  8
$  0  1  2  3  4  5  6 17  7  7  7  7  7  7  7  7  7  7  8  8  8  8
$  0  1  2  3  4  5  6 18  7  7  7  7  7  7  7  7  7  7  7  8  8  8
$  0  1  2  3  4  5  6 19  7  7  7  7  7  7  7  7  7  7  7  7  8  8
$  0  1  2  3  4  5  6 20  7  7  7  7  7  7  7  7  7  7  7  7  7  8
$  0  1  2  3  4  5  6 21  7  7  7  7  7  7  7  7  7  7  7  7  7  7
$  0  1  2  3  4  5  7  6  7  7  7  7  7  7  7  7  7  7  7  7  7  7
$  0  1  2  3  4  5  8  6  6  7  7  7  7  7  7  7  7  7  7  7  7  7
$  0  1  2  3  4  5  9  6  6  6  7  7  7  7  7  7  7  7  7  7  7  7
$  0  1  2  3  4  5 10  6  6  6  6  7  7  7  7  7  7  7  7  7  7  7
$  0  1  2  3  4  5 11  6  6  6  6  6  7  7  7  7  7  7  7  7  7  7
$  0  1  2  3  4  5 12  6  6  6  6  6  6  7  7  7  7  7  7  7  7  7
$  0  1  2  3  4  5 13  6  6  6  6  6  6  6  7  7  7  7  7  7  7  7
$  0  1  2  3  4  5 14  6  6  6  6  6  6  6  6  7  7  7  7  7  7  7
$  0  1  2  3  4  5 15  6  6  6  6  6  6  6  6  6  7  7  7  7  7  7
$  0  1  2  3  4  5 16  6  6  6  6  6  6  6  6  6  6  7  7  7  7  7
$  0  1  2  3  4  5 17  6  6  6  6  6  6  6  6  6  6  6  7  7  7  7
$  0  1  2  3  4  5 18  6  6  6  6  6  6  6  6  6  6  6  6  7  7  7
$  0  1  2  3  4  5 19  6  6  6  6  6  6  6  6  6  6  6  6  6  7  7
$  0  1  2  3  4  5 20  6  6  6  6  6  6  6  6  6  6  6  6  6  6  7
$  0  1  2  3  4  5 21  6  6  6  6  6  6  6  6  6  6  6  6  6  6  6
$  0  1  2  3  4  6  5  6  6  6  6  6  6  6  6  6  6  6  6  6  6  6
$  0  1  2  3  4  7  5  5  6  6  6  6  6  6  6  6  6  6  6  6  6  6
$  0  1  2  3  4  8  5  5  5  6  6  6  6  6  6  6  6  6  6  6  6  6
$  0  1  2  3  4  9  5  5  5  5  6  6  6  6  6  6  6  6  6  6  6  6
$  0  1  2  3  4 10  5  5  5  5  5  6  6  6  6  6  6  6  6  6  6  6
$  0  1  2  3  4 11  5  5  5  5  5  5  6  6  6  6  6  6  6  6  6  6
$  0  1  2  3  4 12  5  5  5  5  5  5  5  6  6  6  6  6  6  6  6  6
$  0  1  2  3  4 13  5  5  5  5  5  5  5  5  6  6  6  6  6  6  6  6
$  0  1  2  3  4 14  5  5  5  5  5  5  5  5  5  6  6  6  6  6  6  6
$  0  1  2  3  4 15  5  5  5  5  5  5  5  5  5  5  6  6  6  6  6  6
$  0  1  2  3  4 16  5  5  5  5  5  5  5  5  5  5  5  6  6  6  6  6
$  0  1  2  3  4 17  5  5  5  5  5  5  5  5  5  5  5  5  6  6  6  6
$  0  1  2  3  4 18  5  5  5  5  5  5  5  5  5  5  5  5  5  6  6  6
$  0  1  2  3  4 19  5  5  5  5  5  5  5  5  5  5  5  5  5  5  6  6
$  0  1  2  3  4 20  5  5  5  5  5  5  5  5  5  5  5  5  5  5  5  6
$  0  1  2  3  4 21  5  5  5  5  5  5  5  5  5  5  5  5  5  5  5  5
$  0  1  2  3  5  4  5  5  5  5  5  5  5  5  5  5  5  5  5  5  5  5
$  0  1  2  3  6  4  4  5  5  5  5  5  5  5  5  5  5  5  5  5  5  5
$  0  1  2  3  7  4  4  4  5  5  5  5  5  5  5  5  5  5  5  5  5  5
$  0  1  2  3  8  4  4  4  4  5  5  5  5  5  5  5  5  5  5  5  5  5
$  0  1  2  3  9  4  4  4  4  4  5  5  5  5  5  5  5  5  5  5  5  5
$  0  1  2  3 10  4  4  4  4  4  4  5  5  5  5  5  5  5  5  5  5  5
$  0  1  2  3 11  4  4  4  4  4  4  4  5  5  5  5  5  5  5  5  5  5
$  0  1  2  3 12  4  4  4  4  4  4  4  4  5  5  5  5  5  5  5  5  5
$  0  1  2  3 13  4  4  4  4  4  4  4  4  4  5  5  5  5  5  5  5  5
$  0  1  2  3 14  4  4  4  4  4  4  4  4  4  4  5  5  5  5  5  5  5
$  0  1  2  3 15  4  4  4  4  4  4  4  4  4  4  4  5  5  5  5  5  5
$  0  1  2  3 16  4  4  4  4  4  4  4  4  4  4  4  4  5  5  5  5  5
$  0  1  2  3 17  4  4  4  4  4  4  4  4  4  4  4  4  4  5  5  5  5
$  0  1  2  3 18  4  4  4  4  4  4  4  4  4  4  4  4  4  4  5  5  5
$  0  1  2  3 19  4  4  4  4  4  4  4  4  4  4  4  4  4  4  4  5  5
$  0  1  2  3 20  4  4  4  4  4  4  4  4  4  4  4  4  4  4  4  4  5
$  0  1  2  3 21  4  4  4  4  4  4  4  4  4  4  4  4  4  4  4  4  4
$  0  1  2  4  3  4  4  4  4  4  4  4  4  4  4  4  4  4  4  4  4  4
$  0  1  2  5  3  3  4  4  4  4  4  4  4  4  4  4  4  4  4  4  4  4
$  0  1  2  6  3  3  3  4  4  4  4  4  4  4  4  4  4  4  4  4  4  4
$  0  1  2  7  3  3  3  3  4  4  4  4  4  4  4  4  4  4  4  4  4  4
$  0  1  2  8  3  3  3  3  3  4  4  4  4  4  4  4  4  4  4  4  4  4
$  0  1  2  9  3  3  3  3  3  3  4  4  4  4  4  4  4  4  4  4  4  4
$  0  1  2 10  3  3  3  3  3  3  3  4  4  4  4  4  4  4  4  4  4  4
$  0  1  2 11  3  3  3  3  3  3  3  3  4  4  4  4  4  4  4  4  4  4
$  0  1  2 12  3  3  3  3  3  3  3  3  3  4  4  4  4  4  4  4  4  4
$  0  1  2 13  3  3  3  3  3  3  3  3  3  3  4  4  4  4  4  4  4  4
$  0  1  2 14  3  3  3  3  3  3  3  3  3  3  3  4  4  4  4  4  4  4
$  0  1  2 15  3  3  3  3  3  3  3  3  3  3  3  3  4  4  4  4  4  4
$  0  1  2 16  3  3  3  3  3  3  3  3  3  3  3  3  3  4  4  4  4  4
$  0  1  2 17  3  3  3  3  3  3  3  3  3  3  3  3  3  3  4  4  4  4
$  0  1  2 18  3  3  3  3  3  3  3  3  3  3  3  3  3  3  3  4  4  4
$  0  1  2 19  3  3  3  3  3  3  3  3  3  3  3  3  3  3  3  3  4  4
$  0  1  2 20  3  3  3  3  3  3  3  3  3  3  3  3  3  3  3  3  3  4
$  0  1  2 21  3  3  3  3  3  3  3  3  3  3  3  3  3  3  3  3  3  3
$  0  1  3  2  3  3  3  3  3  3  3  3  3  3  3  3  3  3  3  3  3  3
$  0  1  4  2  2  3  3  3  3  3  3  3  3  3  3  3  3  3  3  3  3  3
$  0  1  5  2  2  2  3  3  3  3  3  3  3  3  3  3  3  3  3  3  3  3
$  0  1  6  2  2  2  2  3  3  3  3  3  3  3  3  3  3  3  3  3  3  3
$  0  1  7  2  2  2  2  2  3  3  3  3  3  3  3  3  3  3  3  3  3  3
$  0  1  8  2  2  2  2  2  2  3  3  3  3  3  3  3  3  3  3  3  3  3
$  0  1  9  2  2  2  2  2  2  2  3  3  3  3  3  3  3  3  3  3  3  3
$  0  1 10  2  2  2  2  2  2  2  2  3  3  3  3  3  3  3  3  3  3  3
$  0  1 11  2  2  2  2  2  2  2  2  2  3  3  3  3  3  3  3  3  3  3
$  0  1 12  2  2  2  2  2  2  2  2  2  2  3  3  3  3  3  3  3  3  3
$  0  1 13  2  2  2  2  2  2  2  2  2  2  2  3  3  3  3  3  3  3  3
$  0  1 14  2  2  2  2  2  2  2  2  2  2  2  2  3  3  3  3  3  3  3
$  0  1 15  2  2  2  2  2  2  2  2  2  2  2  2  2  3  3  3  3  3  3
$  0  1 16  2  2  2  2  2  2  2  2  2  2  2  2  2  2  3  3  3  3  3
$  0  1 17  2  2  2  2  2  2  2  2  2  2  2  2  2  2  2  3  3  3  3
$  0  1 18  2  2  2  2  2  2  2  2  2  2  2  2  2  2  2  2  3  3  3
$  0  1 19  2  2  2  2  2  2  2  2  2  2  2  2  2  2  2  2  2  3  3
$  0  1 20  2  2  2  2  2  2  2  2  2  2  2  2  2  2  2  2  2  2  3
$  0  1 21  2  2  2  2  2  2  2  2  2  2  2  2  2  2  2  2  2  2  2
$  0  2  1  2  2  2  2  2  2  2  2  2  2  2  2  2  2  2  2  2  2  2
$  0  3  1  1  2  2  2  2  2  2  2  2  2  2  2  2  2  2  2  2  2  2
$  0  4  1  1  1  2  2  2  2  2  2  2  2  2  2  2  2  2  2  2  2  2
$  0  5  1  1  1  1  2  2  2  2  2  2  2  2  2  2  2  2  2  2  2  2
$  0  6  1  1  1  1  1  2  2  2  2  2  2  2  2  2  2  2  2  2  2  2
$  0  7  1  1  1  1  1  1  2  2  2  2  2  2  2  2  2  2  2  2  2  2
$  0  8  1  1  1  1  1  1  1  2  2  2  2  2  2  2  2  2  2  2  2  2
$  0  9  1  1  1  1  1  1  1  1  2  2  2  2  2  2  2  2  2  2  2  2
$  0 10  1  1  1  1  1  1  1  1  1  2  2  2  2  2  2  2  2  2  2  2
$  0 11  1  1  1  1  1  1  1  1  1  1  2  2  2  2  2  2  2  2  2  2
$  0 12  1  1  1  1  1  1  1  1  1  1  1  2  2  2  2  2  2  2  2  2
$  0 13  1  1  1  1  1  1  1  1  1  1  1  1  2  2  2  2  2  2  2  2
$  0 14  1  1  1  1  1  1  1  1  1  1  1  1  1  2  2  2  2  2  2  2
$  0 15  1  1  1  1  1  1  1  1  1  1  1  1  1  1  2  2  2  2  2  2
$  0 16  1  1  1  1  1  1  1  1  1  1  1  1  1  1  1  2  2  2  2  2
$  0 17  1  1  1  1  1  1  1  1  1  1  1  1  1  1  1  1  2  2  2  2
$  0 18  1  1  1  1  1  1  1  1  1  1  1  1  1  1  1  1  1  2  2  2
$  0 19  1  1  1  1  1  1  1  1  1  1  1  1  1  1  1  1  1  1  2  2
$  0 20  1  1  1  1  1  1  1  1  1  1  1  1  1  1  1  1  1  1  1  2
$  0 21  1  1  1  1  1  1  1  1  1  1  1  1  1  1  1  1  1  1  1  1
$  1  0  1  1  1  1  1  1  1  1  1  1  1  1  1  1  1  1  1  1  1  1
$  2  0  0  1  1  1  1  1  1  1  1  1  1  1  1  1  1  1  1  1  1  1
$  3  0  0  0  1  1  1  1  1  1  1  1  1  1  1  1  1  1  1  1  1  1
$  4  0  0  0  0  1  1  1  1  1  1  1  1  1  1  1  1  1  1  1  1  1
$  5  0  0  0  0  0  1  1  1  1  1  1  1  1  1  1  1  1  1  1  1  1
$  6  0  0  0  0  0  0  1  1  1  1  1  1  1  1  1  1  1  1  1  1  1
$  7  0  0  0  0  0  0  0  1  1  1  1  1  1  1  1  1  1  1  1  1  1
$  8  0  0  0  0  0  0  0  0  1  1  1  1  1  1  1  1  1  1  1  1  1
$  9  0  0  0  0  0  0  0  0  0  1  1  1  1  1  1  1  1  1  1  1  1
$ 10  0  0  0  0  0  0  0  0  0  0  1  1  1  1  1  1  1  1  1  1  1
$ 11  0  0  0  0  0  0  0  0  0  0  0  1  1  1  1  1  1  1  1  1  1
$ 12  0  0  0  0  0  0  0  0  0  0  0  0  1  1  1  1  1  1  1  1  1
$ 13  0  0  0  0  0  0  0  0  0  0  0  0  0  1  1  1  1  1  1  1  1
$ 14  0  0  0  0  0  0  0  0  0  0  0  0  0  0  1  1  1  1  1  1  1
$ 15  0  0  0  0  0  0  0  0  0  0  0  0  0  0  0  1  1  1  1  1  1
$ 16  0  0  0  0  0  0  0  0  0  0  0  0  0  0  0  0  1  1  1  1  1
$ 17  0  0  0  0  0  0  0  0  0  0  0  0  0  0  0  0  0  1  1  1  1
$ 18  0  0  0  0  0  0  0  0  0  0  0  0  0  0  0  0  0  0  1  1  1
$ 19  0  0  0  0  0  0  0  0  0  0  0  0  0  0  0  0  0  0  0  1  1
$ 20  0  0  0  0  0  0  0  0  0  0  0  0  0  0  0  0  0  0  0  0  1
$ 21  0  0  0  0  0  0  0  0  0  0  0  0  0  0  0  0  0  0  0  0  0

letting fin1 be 5104
